[[69, 68, 67, 59, 58, 65, 56, 57, 49, 50, 40, 39, 48, 47, 55, 46, 38, 37, 28, 29, 30, 31, 21, 22, 19, 20, 11, 10, 2, 3, 12, 13, 4, 14, 5, 6, 7, 8, 9, 18, 17, 16, 15, 23, 24, 25, 26, 27, 35, 36, 33], [32, 41, 42, 43, 34, 44, 45, 54, 53, 52, 51, 60, 61, 62, 63, 72, 70, 71, 81, 80, 79, 89, 90, 99, 98, 97, 88, 87, 96, 95, 86, 94, 85, 84, 93, 92, 91, 83, 82, 73, 64, 74, 66, 75, 76, 77, 78]]